# SCIP version 2.1.0

# frequency for solving LP at the nodes (-1: never; 0: only root LP)
# [type: int, range: [-1,2147483647], default: 1]
lp/solvefreq = -1

# maximal number of restarts (-1: unlimited)
# [type: int, range: [-1,2147483647], default: -1]
presolving/maxrestarts = 0

# should discretization (TRUE) or convexification (FALSE) approach be used?
# [type: bool, range: {TRUE,FALSE}, default: FALSE]
relaxing/gcg/discretization = TRUE
